SCIP Status        : solving was interrupted [time limit reached]
Total Time         :    3600.00
  solving          :    3600.00
  presolving       :       0.15 (included in solving)
  reading          :       0.00
  copying          :       1.08 (45 #copies) (minimal 0.01, maximal 0.04, average 0.02)
Original Problem   :
  Problem name     : bbbenchmark/g05_100.0.cut
  Variables        : 101 (100 binary, 0 integer, 0 implicit integer, 1 continuous)
  Constraints      : 1 initial, 1 maximal
  Objective        : minimize, 1 non-zeros (abs.min = 1, abs.max = 1)
Presolved Problem  :
  Problem name     : t_bbbenchmark/g05_100.0.cut
  Variables        : 1806 (100 binary, 0 integer, 1690 implicit integer, 16 continuous)
  Constraints      : 1736 initial, 3464 maximal
  Objective        : minimize, 1 non-zeros (abs.min = 1, abs.max = 1)
  Nonzeros         : 8521 constraint, 202 clique table
Presolvers         :   ExecTime  SetupTime  Calls  FixedVars   AggrVars   ChgTypes  ChgBounds   AddHoles    DelCons    AddCons   ChgSides   ChgCoefs
  boundshift       :       0.00       0.00      0          0          0          0          0          0          0          0          0          0
  convertinttobin  :       0.00       0.00      0          0          0          0          0          0          0          0          0          0
  domcol           :       0.00       0.00      1          0          0          0          0          0          0          0          0          0
  dualagg          :       0.00       0.00      0          0          0          0          0          0          0          0          0          0
  dualcomp         :       0.00       0.00      1          0          0          0          0          0          0          0          0          0
  dualinfer        :       0.00       0.00      0          0          0          0          0          0          0          0          0          0
  dualsparsify     :       0.00       0.00      1          0          0          0          0          0          0          0          0          0
  gateextraction   :       0.00       0.00      0          0          0          0          0          0          0          0          0          0
  implics          :       0.00       0.00      2          0          0          0          0          0          0          0          0          0
  inttobinary      :       0.00       0.00      0          0          0          0          0          0          0          0          0          0
  qpkktref         :       0.00       0.00      0          0          0          0          0          0          0          0          0          0
  redvub           :       0.00       0.00      0          0          0          0          0          0          0          0          0          0
  sparsify         :       0.00       0.00      1          0          0          0          0          0          0          0          0          0
  stuffing         :       0.00       0.00      0          0          0          0          0          0          0          0          0          0
  trivial          :       0.00       0.00      4          0          0          0          0          0          0          0          0          0
  tworowbnd        :       0.00       0.00      0          0          0          0          0          0          0          0          0          0
  dualfix          :       0.00       0.00      4          0          0          0          0          0          0          0          0          0
  genvbounds       :       0.00       0.00      0          0          0          0          0          0          0          0          0          0
  probing          :       0.12       0.00      1          0          0          0          0          0          0          0          0          0
  pseudoobj        :       0.00       0.00      1          0          0          0          1          0          0          0          0          0
  symmetry         :       0.00       0.00      0          0          0          0          0          0          0          0          0          0
  vbounds          :       0.00       0.00      1          0          0          0          0          0          0          0          0          0
  varbound         :       0.00       0.00      2          0          0          0          0          0          0          0          0          0
  and              :       0.00       0.00      2          0          0          0          0          0          0          0          0          0
  linear           :       0.00       0.00      2          0          0          0          0          0          0          0          0          0
  logicor          :       0.00       0.00      0          0          0          0          0          0          0          0          0          0
  bounddisjunction :       0.00       0.00      0          0          0          0          0          0          0          0          0          0
  nonlinear        :       0.03       0.01      5          0          0          0          1          0          0       1735          0          0
  benders          :       0.00       0.00      0          0          0          0          0          0          0          0          0          0
  components       :       0.00       0.00      1          0          0          0          0          0          0          0          0          0
  root node        :          -          -      -          0          -          -         13          -          -          -          -          -
Constraints        :     Number  MaxNumber  #Separate #Propagate    #EnfoLP    #EnfoRelax  #EnfoPS    #Check   #ResProp    Cutoffs    DomReds       Cuts    Applied      Conss   Children
  benderslp        :          0          0          0          0      93760          0          0      16753          0          0          0          0          0          0          0
  integral         :          0          0          0          0      93760          0          0      16753          0          0        206          0          0        146     187256
  varbound         :         15         15        252     599883          0          0          0        385          0          0      79981          0          0          0          0
  and              :       1690       1690     106138     624861          0          0          0        385     299256          0     199742        217        214          0          0
  linear           :         31+        37        252     624924          0          0          0        383       1837          5     262903          0          0          0          0
  logicor          :          0+      1429          0     108737          0          0          0          0         17        310         13          0          0          0          0
  bounddisjunction :          0+       396          0      72420          0          0          0          0          1         27          0          0          0          0          0
  benders          :          0          0          0          0          0          0          0         33          0          0          0          0          0          0          0
  countsols        :          0          0          0          0          0          0          0         33          0          0          0          0          0          0          0
  components       :          0          0          0          0          0          0          0          0          0          0          0          0          0          0          0
Constraint Timings :  TotalTime  SetupTime   Separate  Propagate     EnfoLP     EnfoPS     EnfoRelax   Check    ResProp    SB-Prop
  benderslp        :       0.16       0.00       0.00       0.00       0.14       0.00       0.00       0.02       0.00       0.00
  integral         :      53.07       0.00       0.00       0.00      52.98       0.00       0.00       0.09       0.00       0.00
  varbound         :       1.30       0.00       0.00       1.30       0.00       0.00       0.00       0.00       0.00       0.00
  and              :      81.83       0.00      58.99      22.37       0.00       0.00       0.00       0.12       0.18       0.17
  linear           :       3.45       0.00       0.08       3.37       0.00       0.00       0.00       0.00       0.00       0.00
  logicor          :       4.28       0.00       0.00       4.28       0.00       0.00       0.00       0.00       0.00       0.00
  bounddisjunction :       1.00       0.00       0.00       1.00       0.00       0.00       0.00       0.00       0.00       0.00
  benders          :       0.00       0.00       0.00       0.00       0.00       0.00       0.00       0.00       0.00       0.00
  countsols        :       0.00       0.00       0.00       0.00       0.00       0.00       0.00       0.00       0.00       0.00
  components       :       0.12       0.00       0.00       0.12       0.00       0.00       0.00       0.00       0.00       0.00
Propagators        : #Propagate   #ResProp    Cutoffs    DomReds
  dualfix          :          4          0          0          0
  genvbounds       :          0          0          0          0
  nlobbt           :          0          0          0          0
  obbt             :          0          0          0          0
  probing          :          0          0          0          0
  pseudoobj        :     425058          0          0         13
  redcost          :     207311          0          0      95659
  rootredcost      :         15          0          0          0
  symmetry         :          0          0          0          0
  vbounds          :     124958          0          0          0
Propagator Timings :  TotalTime  SetupTime   Presolve  Propagate    ResProp    SB-Prop
  dualfix          :       0.00       0.00       0.00       0.00       0.00       0.00
  genvbounds       :       0.53       0.00       0.00       0.53       0.00       0.00
  nlobbt           :       0.00       0.00       0.00       0.00       0.00       0.00
  obbt             :       0.00       0.00       0.00       0.00       0.00       0.00
  probing          :       0.12       0.00       0.12       0.00       0.00       0.00
  pseudoobj        :       0.58       0.00       0.00       0.58       0.00       0.00
  redcost          :      13.44       0.00       0.00      13.44       0.00       0.00
  rootredcost      :       0.71       0.00       0.00       0.71       0.00       0.00
  symmetry         :       0.25       0.00       0.00       0.25       0.00       0.00
  vbounds          :       0.59       0.00       0.00       0.59       0.00       0.00
Conflict Analysis  :       Time      Calls    Success    DomReds  Conflicts   Literals    Reconvs ReconvLits   Dualrays   Nonzeros   LP Iters   (pool size: [10000,10000])
  propagation      :       0.01        337        258          -        297       66.3          0        0.0          -          -          -
  infeasible LP    :       0.19        131        131          -       5396      144.5          0        0.0        139      209.4          0
  bound exceed. LP :      14.93       3418       3220          -      84610      111.4          0        0.0          0        0.0      33859
  strong branching :       0.00          0          0          -          0        0.0          0        0.0          -          -          0
  pseudo solution  :       0.00          0          0          -          0        0.0          0        0.0          -          -          -
  applied globally :       0.36          -          -          0      20151      119.4          -          -        139          -          -
  applied locally  :          -          -          -          0          0        0.0          -          -          0          -          -
Separators         :   ExecTime  SetupTime      Calls  RootCalls    Cutoffs    DomReds  FoundCuts ViaPoolAdd  DirectAdd    Applied ViaPoolApp  DirectApp      Conss
  cut pool         :       3.37          -      25495        295          -          -      35851     481875          -          -          -          -          -    (maximal pool size:       2496)
  aggregation      :     564.78       0.00       4139        252          0          0         18         52          0         32         32          0          0
  > cmir           :          -          -          -          -          -          -          -         52          0         32         32          0          -
  > flowcover      :          -          -          -          -          -          -          -          0          0          0          0          0          -
  > knapsackcover  :          -          -          -          -          -          -          -          0          0          0          0          0          -
  cgmip            :       0.00       0.00          0          0          0          0          0          0          0          0          0          0          0
  clique           :       0.00       0.00        252        252          0          0          0          0          0          0          0          0          0
  closecuts        :       0.00       0.00          0          0          0          0          0          0          0          0          0          0          0
  convexproj       :       0.00       0.00          0          0          0          0          0          0          0          0          0          0          0
  disjunctive      :       0.00       0.00          0          0          0          0          0          0          0          0          0          0          0
  eccuts           :       0.00       0.00          0          0          0          0          0          0          0          0          0          0          0
  gauge            :       0.00       0.00          0          0          0          0          0          0          0          0          0          0          0
  gomory           :       0.00       0.00          0          0          0          0          0          0          0          0          0          0          0
  > gomorymi       :          -          -          -          -          -          -          -          0          0          0          0          0          -
  > strongcg       :          -          -          -          -          -          -          -          0          0          0          0          0          -
  impliedbounds    :       0.38       0.00       4139        252          0          0          0          0          0          0          0          0          0
  interlattice     :       0.73       0.00        160        160          0          0        160          0        160        154          0        154          0
  interminor       :       0.00       0.00          0          0          0          0          0          0          0          0          0          0          0
  intersub         :       2.16       0.00         40         40          0          0         40          0         40         40          0         40          0
  intobj           :       0.00       0.00          0          0          0          0          0          0          0          0          0          0          0
  mcf              :       0.00       0.00          1          1          0          0          0          0          0          0          0          0          0
  minor            :       0.01       0.00          0          0          0          0          0          0          0          0          0          0          0
  mixing           :       0.01       0.00       4139        252          0          0          0          0          0          0          0          0          0
  oddcycle         :       0.00       0.00          0          0          0          0          0          0          0          0          0          0          0
  rapidlearning    :       0.00       0.00          0          0          0          0          0          0          0          0          0          0          0
  rlt              :       0.00       0.00         10         10          0          0          0          0          0          0          0          0          0
  zerohalf         :      35.97       0.00       3668         20          0          0      35833     481823          0     109392     109392          0          0
Cutselectors       :   ExecTime  SetupTime      Calls  RootCalls   Selected     Forced   Filtered  RootSelec   RootForc   RootFilt 
  hybrid           :       0.47       0.00      10971        253     109832          0     372460        419          0         19
Pricers            :   ExecTime  SetupTime      Calls       Vars
  problem variables:       0.00          -          0          0
Branching Rules    :   ExecTime  SetupTime   BranchLP  BranchExt   BranchPS    Cutoffs    DomReds       Cuts      Conss   Children
  allfullstrong    :       0.00       0.00          0          0          0          0          0          0          0          0
  cloud            :       0.00       0.00          0          0          0          0          0          0          0          0
  distribution     :       0.00       0.00          0          0          0          0          0          0          0          0
  fullstrong       :       0.00       0.00          0          0          0          0          0          0          0          0
  inference        :       0.00       0.00          0          0          0          0          0          0          0          0
  leastinf         :       0.00       0.00          0          0          0          0          0          0          0          0
  lookahead        :       0.00       0.00          0          0          0          0          0          0          0          0
  mostinf          :       0.00       0.00          0          0          0          0          0          0          0          0
  multaggr         :       0.00       0.00          0          0          0          0          0          0          0          0
  nodereopt        :       0.00       0.00          0          0          0          0          0          0          0          0
  pscost           :       0.00       0.00          0          0          0          0          0          0          0          0
  random           :       0.00       0.00          0          0          0          0          0          0          0          0
  relpscost        :      52.67       0.00      93760          0          0          0        206          0        147     187256
  vanillafullstrong:       0.00       0.00          0          0          0          0          0          0          0          0
Primal Heuristics  :   ExecTime  SetupTime      Calls      Found       Best
  LP solutions     :       0.00          -          -          0          0
  relax solutions  :       0.00          -          -          0          0
  pseudo solutions :       0.00          -          -          0          0
  strong branching :       0.03          -          -          0          0
  actconsdiving    :       0.00       0.00          0          0          0
  adaptivediving   :      20.68       0.00        108          2          2
  alns             :       2.46       0.00         22          5          4
  bound            :       0.00       0.00          0          0          0
  clique           :       0.01       0.00          1          0          0
  coefdiving       :       0.00       0.00          0          0          0
  completesol      :       0.00       0.00          0          0          0
  conflictdiving   :     130.30       0.00        696          0          0
  crossover        :       1.41       0.00          6          3          3
  dins             :       0.00       0.00          0          0          0
  distributiondivin:      59.60       0.00        210          0          0
  dps              :       0.00       0.00          0          0          0
  dualval          :       0.00       0.00          0          0          0
  farkasdiving     :       0.04       0.00          0          0          0
  feaspump         :       0.57       0.00          1          1          1
  fixandinfer      :       0.00       0.00          0          0          0
  fracdiving       :      46.91       0.00        283          0          0
  gins             :       0.13       0.00          0          0          0
  guideddiving     :      50.32       0.00        292          4          4
  indicator        :       0.07       0.00          0          0          0
  indicatordiving  :       0.00       0.00          0          0          0
  intdiving        :       0.00       0.00          0          0          0
  intshifting      :       0.64       0.00         54          0          0
  linesearchdiving :      42.95       0.00        260          0          0
  localbranching   :       0.00       0.00          0          0          0
  locks            :       0.00       0.00          1          0          0
  lpface           :       0.16       0.00          0          0          0
  mpec             :     406.27       0.00         11          0          0
  multistart       :       0.00       0.00          0          0          0
  mutation         :       0.00       0.00          0          0          0
  nlpdiving        :      10.67       0.00         10          0          0
  objpscostdiving  :      63.28       0.00         55          8          1
  octane           :       0.00       0.00          0          0          0
  ofins            :       0.08       0.00          0          0          0
  oneopt           :       0.14       0.00         20          0          0
  padm             :       0.00       0.00          0          0          0
  proximity        :       0.00       0.00          0          0          0
  pscostdiving     :      46.48       0.00        222          1          1
  randrounding     :       1.56       0.00      16716          0          0
  rens             :       0.00       0.00          0          0          0
  reoptsols        :       0.00       0.00          0          0          0
  repair           :       0.00       0.00          0          0          0
  rins             :      15.70       0.00         16          0          0
  rootsoldiving    :      25.25       0.00         25          0          0
  rounding         :       1.59       0.00       4486          0          0
  shiftandpropagate:       0.00       0.00          0          0          0
  shifting         :      49.72       0.00      10612          3          3
  simplerounding   :       0.09       0.00          0          0          0
  subnlp           :     160.66       0.00          0          0          0
  trivial          :       0.00       0.00          2          2          2
  trivialnegation  :       0.00       0.00          0          0          0
  trustregion      :       0.00       0.00          0          0          0
  trysol           :       0.17       0.00          0          0          0
  twoopt           :       0.00       0.00          0          0          0
  undercover       :       0.96       0.00          1          1          1
  vbounds          :       0.00       0.00          0          0          0
  veclendiving     :      43.64       0.00        273          0          0
  zeroobj          :       0.00       0.00          0          0          0
  zirounding       :       0.58       0.00       1000          0          0
  other solutions  :          -          -          -          0          -
Diving (single)    :      Calls      Nodes   LP Iters Backtracks  Conflicts   MinDepth   MaxDepth   AvgDepth  RoundSols  NLeafSols  MinSolDpt  MaxSolDpt  AvgSolDpt
  actconsdiving    :          0          -          -          -          -          -          -          -          -          -          -          -          -
  coefdiving       :          0          -          -          -          -          -          -          -          -          -          -          -          -
  conflictdiving   :        696      32740     959101        725      41659         56         90       67.6          0          -          -          -          -
  distributiondivin:        210       8931     331951        234       4333         52         77       61.4          0          -          -          -          -
  farkasdiving     :          0          -          -          -          -          -          -          -          -          -          -          -          -
  fracdiving       :        283      33974     327019         34        450         71        342      140.1          0          -          -          -          -
  guideddiving     :        292      29570     369545         99       4234         72        254      122.4          0          4        105        116      111.0
  indicatordiving  :          0          -          -          -          -          -          -          -          -          -          -          -          -
  linesearchdiving :        260      12754     328052        109      11151         48         88       69.5          0          -          -          -          -
  pscostdiving     :        222      10877     343709        231       5063         57         76       68.4          0          1         68         68       68.0
  veclendiving     :        273      12979     326935        184      17719         56         89       67.5          0          -          -          -          -
Diving (adaptive)  :      Calls      Nodes   LP Iters Backtracks  Conflicts   MinDepth   MaxDepth   AvgDepth  RoundSols  NLeafSols  MinSolDpt  MaxSolDpt  AvgSolDpt
  actconsdiving    :         12        502      15635         14        125         56         64       61.4          0          -          -          -          -
  coefdiving       :         25       1255      28921         18       1537         57         80       69.6          0          -          -          -          -
  conflictdiving   :          0          -          -          -          -          -          -          -          -          -          -          -          -
  distributiondivin:          0          -          -          -          -          -          -          -          -          -          -          -          -
  farkasdiving     :          0          -          -          -          -          -          -          -          -          -          -          -          -
  fracdiving       :          0          -          -          -          -          -          -          -          -          -          -          -          -
  guideddiving     :         16       1792      19830          1        115         84        164      128.2          0          2        112        112      112.0
  indicatordiving  :          0          -          -          -          -          -          -          -          -          -          -          -          -
  linesearchdiving :         22       1147      29795          6        986         59         81       70.7          0          -          -          -          -
  pscostdiving     :          6        304       8835          6        106         65         80       70.3          0          -          -          -          -
  veclendiving     :         27       1394      32371         16       1671         57         80       69.0          0          -          -          -          -
Neighborhoods      :      Calls  SetupTime  SolveTime SolveNodes       Sols       Best       Exp3  EpsGreedy        UCB TgtFixRate  Opt  Inf Node Stal  Sol  Usr Othr Actv
  rens             :          2       0.05       0.03          2          0          0    0.00000   -1.00000    0.54851      0.550    0    2    0    0    0    0    0    1
  rins             :          4       0.18       0.87        998          2          2    0.00000   -1.00000    0.52440      0.784    0    1    0    3    0    0    0    1
  mutation         :          2       0.06       0.10         67          0          0    0.00000   -1.00000    0.47713      0.850    0    1    0    1    0    0    0    1
  localbranching   :          1       0.03       0.02         29          0          0    0.00000   -1.00000    0.54183      0.700    0    1    0    0    0    0    0    1
  crossover        :          2       0.04       0.05         24          0          0    0.00000   -1.00000    0.53038      0.550    0    2    0    0    0    0    0    1
  proximity        :          5       0.18       0.34        294          2          1    0.00000   -1.00000    0.53568      0.879    1    1    0    3    0    0    0    1
  zeroobjective    :          5       0.16       0.12        228          1          1    0.00000   -1.00000    0.54637      0.837    1    1    0    3    0    0    0    1
  dins             :          1       0.03       0.02         22          0          0    0.00000   -1.00000    0.54883      0.700    0    1    0    0    0    0    0    1
  trustregion      :          0       0.00       0.00          0          0          0    0.00000   -1.00000    1.00000      0.900    0    0    0    0    0    0    0    0
Expressions        :   #IntEval  IntEvalTi   #RevProp  RevPropTi    DomReds    Cutoffs  #Estimate  EstimTime  Branching  #Simplify SimplifyTi Simplified
  pow              :          0       0.00          0       0.00          0          0          0       0.00          0          0       0.00          0
  prod             :       9900       0.00          0       0.00          0          0          0       0.00          0       6640       0.00          0
  sum              :          8       0.00          2       0.00          0          0          0       0.00          0          3       0.01          2
  var              :       6227       0.00          0       0.00          0          0          0       0.00          0      15288       0.00          0
  varidx           :          0       0.00          0       0.00          0          0          0       0.00          0          0       0.00          0
LP                 :       Time      Calls Iterations  Iter/call   Iter/sec  Time-0-It Calls-0-It    ItLimit
  primal LP        :     122.16      13925          0       0.00       0.00     122.12      13925
  dual LP          :    1351.69     175201    6289987      37.81    4653.42       4.85       8826
  lex dual LP      :       0.00          0          0       0.00          -
  barrier LP       :       0.00          0          0       0.00          -       0.00          0
  resolve instable :       0.00          0          0       0.00          -
  diving/probing LP:     460.36      13462    3514752     261.09    7634.79
  strong branching :      21.99        804     143758     178.80    6537.43          -          -        102
    (at root node) :          -         24      17819     742.46          -
  conflict analysis:       7.47       3562      33859       9.51    4532.66
NLP relaxation     :
  solve time       :      10.66 (10 calls)
  convexity        :  nonconvex (46 linear rows, 0 convex ineq., 0 nonconvex ineq., 1690 nonlinear eq. or two-sided ineq.)
NLP Solvers        :  #Problems  ProblemTi    #Solves  SolveTime      #Iter  Time/Iter      #Okay #TimeLimit #IterLimit #LObjLimit #Interrupt  #NumError #EvalError  #OutOfMem #LicenseEr #OtherTerm   #GlobOpt    #LocOpt  #Feasible #LocInfeas #GlobInfea #Unbounded   #Unknown
  ipopt            :         12       6.02         27     421.14       2002       0.21         27          0          0          0          0          0          0          0          0          0          0          3          0         14          0          0         10
B&B Tree           :
  number of runs   :          1
  nodes            :     155283 (93628 internal, 61655 leaves)
  feasible leaves  :          0
  infeas. leaves   :          4
  objective leaves :      61650
  nodes (total)    :     155283 (93628 internal, 61655 leaves)
  nodes left       :      31907
  max depth        :         72
  max depth (total):         72
  backtracks       :      37394 (24.1%)
  early backtracks :          0 (0.0%)
  nodes exc. ref.  :          0 (0.0%)
  delayed cutoffs  :          1
  repropagations   :         11 (8 domain reductions, 0 cutoffs)
  avg switch length:       6.56
  switching time   :     159.09
Estim. Tree Size   :     310700
Estimation Tree    : 187257 nodes (155350 visited, 93628 internal, 61722 leaves, 31907 open), weight: 0.0000 completed 0.0932
Estimations        :      estim      value      trend resolution     smooth
  wbe              : 1250093257396343552          -          -          -          -
  tree-profile     :         -1          -          -          -          -
  gap              :    3842024    0.67916    0.00001         64    3928638
  tree-weight      :     310700    0.00000    0.00000         64     310173
  leaf-frequency   :     310700    0.39731   -0.00006         64     310173
  ssg              :    3667112    0.85278   -0.00003         64    3742553
  open-nodes       :     310700 31907.00000   57.11967         64     310173
Root Node          :
  First LP value   : -1.00000000000000e+00
  First LP Iters   :       1630 (18111.11 Iter/sec)
  First LP Time    :       0.09
  Final Dual Bound : -9.35845231779315e-01
  Final Root Iters :      11308
  Root LP Estimate : -3.47636779836892e-01
Solution           :
  Solutions found  :         30 (22 improvements)
  First Solution   : +1.00000000000000e+05   (in run 1, after 0 nodes, 0.00 seconds, depth 0, found by <trivial>)
  Gap First Sol.   :   infinite
  Gap Last Sol.    :      47.49 %
  Primal Bound     : -5.66464646464644e-01   (in run 1, after 143628 nodes, 3281.57 seconds, depth 20, found by <alns>)
  Dual Bound       : -8.34071847045953e-01
  Gap              :      47.24 %
Integrals          :      Total       Avg%
  primal-dual      :  124666.20      34.63
  primal-ref       :          -          - (not evaluated)
  dual-ref         :          -          - (not evaluated)
